Using license file /home/benedond/gurobi.lic
Using gurobi.env file
Set parameter Threads to value 1
Academic license - for non-commercial use only
Changed value of parameter TimeLimit to 300.0
   Prev: inf  Min: 0.0  Max: inf  Default: inf
Gurobi Optimizer version 9.0.1 build v9.0.1rc0 (linux64)
Optimize a model with 4517 rows, 4291 columns and 20947 nonzeros
Model fingerprint: 0xe35d357b
Variable types: 90 continuous, 4201 integer (4201 binary)
Coefficient statistics:
  Matrix range     [2e-01, 4e+02]
  Objective range  [7e-03, 2e-01]
  Bounds range     [1e+00, 1e+00]
  RHS range        [1e+00, 2e+03]
Found heuristic solution: objective 4.2602794
Presolve removed 123 rows and 101 columns
Presolve time: 0.08s
Presolved: 4394 rows, 4190 columns, 20531 nonzeros
Variable types: 89 continuous, 4101 integer (4101 binary)

Root relaxation: objective 1.887810e+00, 3927 iterations, 0.20 seconds

    Nodes    |    Current Node    |     Objective Bounds      |     Work
 Expl Unexpl |  Obj  Depth IntInf | Incumbent    BestBd   Gap | It/Node Time

     0     0    1.88781    0  263    4.26028    1.88781  55.7%     -    0s
H    0     0                       4.2433529    1.88781  55.5%     -    0s
H    0     0                       3.3736961    1.88781  44.0%     -    0s
     0     0    1.96508    0  230    3.37370    1.96508  41.8%     -    1s
     0     0    1.96700    0  231    3.37370    1.96700  41.7%     -    1s
     0     0    2.08954    0  188    3.37370    2.08954  38.1%     -    1s
H    0     0                       3.1597549    2.08954  33.9%     -    1s
     0     0    2.09003    0  165    3.15975    2.09003  33.9%     -    1s
     0     0    2.18889    0  210    3.15975    2.18889  30.7%     -    1s
     0     0    2.20628    0  214    3.15975    2.20628  30.2%     -    1s
     0     0    2.21270    0  208    3.15975    2.21270  30.0%     -    1s
     0     0    2.21317    0  243    3.15975    2.21317  30.0%     -    2s
     0     0    2.21327    0  253    3.15975    2.21327  30.0%     -    2s
     0     0    2.24018    0  196    3.15975    2.24018  29.1%     -    2s
     0     0    2.25991    0  273    3.15975    2.25991  28.5%     -    2s
     0     0    2.26263    0  224    3.15975    2.26263  28.4%     -    2s
     0     0    2.26414    0  184    3.15975    2.26414  28.3%     -    2s
     0     0    2.26570    0  206    3.15975    2.26570  28.3%     -    2s
     0     0    2.26622    0  222    3.15975    2.26622  28.3%     -    2s
     0     0    2.26657    0  223    3.15975    2.26657  28.3%     -    2s
     0     0    2.26660    0  221    3.15975    2.26660  28.3%     -    2s
     0     0    2.27652    0  235    3.15975    2.27652  28.0%     -    2s
     0     0    2.27819    0  229    3.15975    2.27819  27.9%     -    3s
     0     0    2.27856    0  221    3.15975    2.27856  27.9%     -    3s
     0     0    2.27879    0  228    3.15975    2.27879  27.9%     -    3s
     0     0    2.28480    0  246    3.15975    2.28480  27.7%     -    3s
     0     0    2.28675    0  202    3.15975    2.28675  27.6%     -    3s
     0     0    2.28697    0  215    3.15975    2.28697  27.6%     -    3s
     0     0    2.29667    0  231    3.15975    2.29667  27.3%     -    3s
     0     0    2.29867    0  233    3.15975    2.29867  27.3%     -    3s
     0     0    2.29889    0  224    3.15975    2.29889  27.2%     -    3s
     0     0    2.30573    0  289    3.15975    2.30573  27.0%     -    3s
     0     0    2.30719    0  266    3.15975    2.30719  27.0%     -    3s
     0     0    2.30763    0  245    3.15975    2.30763  27.0%     -    4s
     0     0    2.30774    0  253    3.15975    2.30774  27.0%     -    4s
     0     0    2.31111    0  226    3.15975    2.31111  26.9%     -    4s
     0     0    2.31189    0  251    3.15975    2.31189  26.8%     -    4s
     0     0    2.31209    0  245    3.15975    2.31209  26.8%     -    4s
     0     0    2.32165    0  227    3.15975    2.32165  26.5%     -    4s
     0     0    2.32353    0  281    3.15975    2.32353  26.5%     -    4s
     0     0    2.32407    0  282    3.15975    2.32407  26.4%     -    4s
     0     0    2.32411    0  263    3.15975    2.32411  26.4%     -    4s
     0     0    2.32635    0  216    3.15975    2.32635  26.4%     -    4s
     0     0    2.32792    0  262    3.15975    2.32792  26.3%     -    4s
     0     0    2.32827    0  258    3.15975    2.32827  26.3%     -    4s
     0     0    2.33158    0  281    3.15975    2.33158  26.2%     -    5s
     0     0    2.33241    0  261    3.15975    2.33241  26.2%     -    5s
     0     0    2.33256    0  244    3.15975    2.33256  26.2%     -    5s
     0     0    2.33790    0  313    3.15975    2.33790  26.0%     -    5s
     0     0    2.33961    0  294    3.15975    2.33961  26.0%     -    6s
     0     0    2.34042    0  300    3.15975    2.34042  25.9%     -    6s
     0     0    2.34061    0  319    3.15975    2.34061  25.9%     -    6s
     0     0    2.34201    0  245    3.15975    2.34201  25.9%     -    6s
     0     0    2.34289    0  238    3.15975    2.34289  25.9%     -    6s
     0     0    2.34315    0  268    3.15975    2.34315  25.8%     -    6s
     0     0    2.34781    0  307    3.15975    2.34781  25.7%     -    6s
     0     0    2.34901    0  281    3.15975    2.34901  25.7%     -    6s
     0     0    2.34953    0  313    3.15975    2.34953  25.6%     -    6s
     0     0    2.34968    0  334    3.15975    2.34968  25.6%     -    6s
     0     0    2.35202    0  278    3.15975    2.35202  25.6%     -    7s
H    0     0                       3.1597549    2.35202  25.6%     -   11s
     0     0    2.35239    0  306    3.15975    2.35239  25.6%     -   11s
     0     0    2.35498    0  255    3.15975    2.35498  25.5%     -   11s
     0     0    2.35498    0  254    3.15975    2.35498  25.5%     -   13s
     0     2    2.35500    0  254    3.15975    2.35500  25.5%     -   13s
     3     5    2.36487    2  248    3.15975    2.35746  25.4%  1061   15s
    29    31    2.42212   22  198    3.15975    2.36489  25.2%   776   20s
    64    66    2.45410   50  212    3.15975    2.36489  25.2%   715   25s
   136   138    2.66550  103  159    3.15975    2.36489  25.2%   569   30s
H  235   235                       3.1031716    2.36489  23.8%   372   31s
H  257   256                       3.1028676    2.36489  23.8%   350   31s
H  300   266                       3.0063873    2.36614  21.3%   328   35s
   405   373    2.64992   91  159    3.00639    2.36614  21.3%   321   40s
H  510   457                       2.9846471    2.36614  20.7%   279   43s
   511   458    2.38735   13  254    2.98465    2.36614  20.7%   279   45s
H  512   436                       2.9834951    2.36614  20.7%   278   46s
   523   443    2.46164   22  318    2.98350    2.37834  20.3%   272   50s
   537   452    2.86431  166  353    2.98350    2.41583  19.0%   265   55s
H  537   428                       2.9562255    2.41776  18.2%   265   59s
   539   430    2.68079  122  331    2.95623    2.41914  18.2%   264   60s
   550   437    2.72017   65  425    2.95623    2.43194  17.7%   259   65s
   563   446    2.44747   12  447    2.95623    2.44146  17.4%   253   70s
   576   454    2.89794  101  419    2.95623    2.44774  17.2%   247   75s
   590   464    2.93435  131  425    2.95623    2.45181  17.1%   241   80s
H  594   444                       2.9549118    2.45181  17.0%   349   81s
   602   449    2.66591  106  300    2.95491    2.45181  17.0%   344   85s
H  611   432                       2.8259755    2.45344  13.2%   339   95s
   618   437    2.45483   23  390    2.82598    2.45483  13.1%   336  106s
   621   441    2.45493   25  417    2.82598    2.45493  13.1%   379  116s
   622   441    2.51957   25  223    2.82598    2.45493  13.1%   381  121s
   625   443    2.45507   27  399    2.82598    2.45499  13.1%   382  125s
   632   448    2.54795   30  262    2.82598    2.45575  13.1%   389  130s
   638   452    2.47168   33  284    2.82598    2.45682  13.1%   396  136s
H  647   434                       2.8248578    2.45932  12.9%   403  143s
   650   438    2.64960   39  255    2.82486    2.46152  12.9%   409  145s
   661   445    2.47837   45  263    2.82486    2.47133  12.5%   421  150s
   674   454    2.53713   51  183    2.82486    2.47133  12.5%   435  155s
H  688   439                       2.8222304    2.47133  12.4%   441  159s
   689   442    2.53218   59  262    2.82223    2.47133  12.4%   444  160s
   706   451    2.71028   67  180    2.82223    2.47133  12.4%   459  165s
   730   461    2.71504   79  158    2.82223    2.47133  12.4%   473  170s
   752   470    2.68198   90  176    2.82223    2.47133  12.4%   487  175s
   780   482     cutoff  104         2.82223    2.47133  12.4%   502  180s
   824   480    2.60045   44  172    2.82223    2.47134  12.4%   504  185s
   851   498    2.51055   58  185    2.82223    2.47134  12.4%   511  190s
   866   506    2.80132   65  165    2.82223    2.47134  12.4%   518  195s
   902   530    2.66538   83  177    2.82223    2.47134  12.4%   523  200s
   957   554    2.65545  111  134    2.82223    2.47134  12.4%   524  205s
   998   570     cutoff  131         2.82223    2.47134  12.4%   526  210s
  1157   543    2.48203   43  378    2.82223    2.47178  12.4%   483  215s
  1178   557    2.64750   53  200    2.82223    2.47178  12.4%   498  220s
  1184   561    2.67826   56  267    2.82223    2.47178  12.4%   502  225s
  1204   574    2.56300   66  166    2.82223    2.47178  12.4%   518  230s
  1236   592    2.62291   82  139    2.82223    2.47178  12.4%   530  235s
  1266   612    2.67409   97  140    2.82223    2.47178  12.4%   543  240s
  1310   625    2.81510  119  152    2.82223    2.47178  12.4%   551  245s
  1362   633    2.47668   34  269    2.82223    2.47668  12.2%   553  250s
  1401   659    2.64765   64  200    2.82223    2.47760  12.2%   550  255s
  1478   710    2.53955  134  245    2.82223    2.47760  12.2%   535  260s
  1535   747    2.77815  170  128    2.82223    2.47760  12.2%   533  265s
  1654   777    2.81474  234   82    2.82223    2.47760  12.2%   517  270s
  1675   779    2.49691   45  344    2.82223    2.47769  12.2%   517  275s
  1729   815    2.59240   95  186    2.82223    2.47769  12.2%   515  280s
  1771   843    2.66651  127  165    2.82223    2.47769  12.2%   519  285s
  1813   873    2.71025  154  190    2.82223    2.47769  12.2%   519  290s
  1879   929    2.76923  204  192    2.82223    2.47769  12.2%   515  295s

Cutting planes:
  Gomory: 2
  Cover: 19
  Implied bound: 3
  Projected implied bound: 3
  Clique: 14
  MIR: 247
  StrongCG: 1
  Flow cover: 608
  GUB cover: 2
  Zero half: 1
  Mod-K: 1
  RLT: 17
  Relax-and-lift: 323

Explored 1966 nodes (1026647 simplex iterations) in 300.00 seconds
Thread count was 1 (of 4 available processors)

Solution count 10: 2.82223 2.82486 2.82598 ... 3.10317

Time limit reached
Best objective 2.822230391913e+00, best bound 2.477857788614e+00, gap 12.2021%
